
Log started (V11.0.0) Mon Apr 14 10:02:18 2008

Tried aggregator 1 time.
Reduced MIP has 530 rows, 15001 columns, and 30030 nonzeros.
Presolve time =    0.11 sec.
Clique table members: 500.
MIP emphasis: balance optimality and feasibility.
MIP search method: dynamic search.
Parallel mode: none, using 1 thread.
Root relaxation solution time =    0.45 sec.

        Nodes                                         Cuts/
   Node  Left     Objective  IInf  Best Integer     Best Node    ItCnt     Gap

*     0+    0                        24285.0000       62.3456      909   99.74%
*     0+    0                           67.0000       62.3456      909    6.95%
      0     0       63.0000    51       67.0000      Fract: 9      922    5.97%
*     0+    0                           66.0000       63.0000      922    4.55%

Repeating presolve.
Tried aggregator 1 time.
MIP Presolve eliminated 0 rows and 5245 columns.
Reduced MIP has 530 rows, 9756 columns, and 19540 nonzeros.
Tried aggregator 1 time.
Represolve time =    0.44 sec.
Clique table members: 809.
MIP emphasis: balance optimality and feasibility.
MIP search method: dynamic search.
Parallel mode: none, using 1 thread.
Root relaxation solution time =    0.38 sec.

        Nodes                                         Cuts/
   Node  Left     Objective  IInf  Best Integer     Best Node    ItCnt     Gap

      0     0       63.0000    58       66.0000       63.0000      937    4.55%
      0     2       63.0000    58       66.0000       63.0000      937    4.55%
    100    96       64.0000    50       66.0000       63.0000     5789    4.55%
    200   175       65.0000    31       66.0000       63.0000    11037    4.55%
*   260+   99                           65.0000       63.0000    15675    3.08%
    300   138       64.0000    36       65.0000       63.0000    17688    3.08%
    400   232       64.0000    43       65.0000       63.0000    21325    3.08%
    500   302    infeasible             65.0000       63.0000    30011    3.08%
*   504+  202                           64.0000       63.0000    31714    1.56%
    600   159       63.0000    63       64.0000       63.0000    53098    1.56%
    700   136       63.0000    70       64.0000       63.0000    68140    1.56%
    800   143       63.0000   121       64.0000       63.0000    86742    1.56%
    900   159       63.0000    89       64.0000       63.0000   126942    1.56%
   1000   221    infeasible             64.0000       63.0000   153927    1.56%
Elapsed time = 122.56 sec. (tree size =  3.00 MB, solutions = 5)
   1100   261       63.0000   142       64.0000       63.0000   191418    1.56%
   1200   289       63.0000    63       64.0000       63.0000   251278    1.56%
   1300   347       63.0000   174       64.0000       63.0000   289229    1.56%
   1400   361       63.0000   136       64.0000       63.0000   353627    1.56%
   1500   403    infeasible             64.0000       63.0000   402898    1.56%
   1600   431       63.0000    97       64.0000       63.0000   466588    1.56%
   1700   531       63.0000    68       64.0000       63.0000   475500    1.56%
   1800   607       63.0000    85       64.0000       63.0000   496687    1.56%
   1900   675    infeasible             64.0000       63.0000   522642    1.56%
   2000   729       63.0000   107       64.0000       63.0000   555344    1.56%
Elapsed time = 503.08 sec. (tree size = 14.83 MB, solutions = 5)
   2100   797    infeasible             64.0000       63.0000   581440    1.56%
   2200   845       63.0000   175       64.0000       63.0000   627925    1.56%
   2300   919       63.0000   168       64.0000       63.0000   655485    1.56%
   2400   977    infeasible             64.0000       63.0000   694025    1.56%
   2500  1035       63.0000   121       64.0000       63.0000   737651    1.56%
   2600  1087    infeasible             64.0000       63.0000   784754    1.56%
   2700  1163       63.0000    88       64.0000       63.0000   813778    1.56%
   2800  1239       63.0000   131       64.0000       63.0000   846115    1.56%
   2900  1309       63.0000   157       64.0000       63.0000   879510    1.56%
   3000  1335       63.0000   148       64.0000       63.0000   945522    1.56%
Elapsed time = 945.20 sec. (tree size = 32.15 MB, solutions = 5)
   3100  1389    infeasible             64.0000       63.0000   990334    1.56%
   3200  1459       63.0000   159       64.0000       63.0000  1019506    1.56%
   3300  1517       63.0000   129       64.0000       63.0000  1058613    1.56%
   3400  1581       63.0000   125       64.0000       63.0000  1096723    1.56%
   3500  1631       63.0000    76       64.0000       63.0000  1146122    1.56%
   3600  1697       63.0000   165       64.0000       63.0000  1178324    1.56%
   3700  1739       63.0000   113       64.0000       63.0000  1236669    1.56%
   3800  1759       63.0000   149       64.0000       63.0000  1299672    1.56%
   3900  1829       63.0000    78       64.0000       63.0000  1339198    1.56%
   4000  1881       63.0000    98       64.0000       63.0000  1380990    1.56%
Elapsed time = 1536.11 sec. (tree size = 51.15 MB, solutions = 5)
   4100  1951       63.0000   144       64.0000       63.0000  1411551    1.56%
   4200  2015       63.0000   111       64.0000       63.0000  1448111    1.56%
   4300  2065    infeasible             64.0000       63.0000  1492799    1.56%
   4400  2137    infeasible             64.0000       63.0000  1529194    1.56%
*  4468     0      integral     0       63.0000       63.0000  1558984    0.00%

Cover cuts applied:  2498
Gomory fractional cuts applied:  1

Solution pool: 6 solutions saved.

MIP - Integer optimal solution:  Objective = 6.3000000000e+001
Solution time = 1796.27 sec.  Iterations = 1558984  Nodes = 4469


Incumbent solution
Variable Name           Solution Value
Cmax                         63.000000
X_1_8                         1.000000
X_2_3                         1.000000
X_3_25                        1.000000
X_4_25                        1.000000
X_5_7                         1.000000
X_6_20                        1.000000
X_7_5                         1.000000
X_8_22                        1.000000
X_9_22                        1.000000
X_10_29                       1.000000
X_11_6                        1.000000
X_12_26                       1.000000
X_13_6                        1.000000
X_14_10                       1.000000
X_15_16                       1.000000
X_16_1                        1.000000
X_17_1                        1.000000
X_18_23                       1.000000
X_19_15                       1.000000
X_20_25                       1.000000
X_21_26                       1.000000
X_22_10                       1.000000
X_23_8                        1.000000
X_24_3                        1.000000
X_25_18                       1.000000
X_26_6                        1.000000
X_27_18                       1.000000
X_28_12                       1.000000
X_29_29                       1.000000
X_30_30                       1.000000
X_31_14                       1.000000
X_32_16                       1.000000
X_33_22                       1.000000
X_34_27                       1.000000
X_35_10                       1.000000
X_36_17                       1.000000
X_37_5                        1.000000
X_38_9                        1.000000
X_39_19                       1.000000
X_40_9                        1.000000
X_41_30                       1.000000
X_42_7                        1.000000
X_43_30                       1.000000
X_44_17                       1.000000
X_45_5                        1.000000
X_46_12                       1.000000
X_47_9                        1.000000
X_48_3                        1.000000
X_49_28                       1.000000
X_50_11                       1.000000
X_51_12                       1.000000
X_52_11                       1.000000
X_53_2                        1.000000
X_54_7                        1.000000
X_55_18                       1.000000
X_56_13                       1.000000
X_57_14                       1.000000
X_58_26                       1.000000
X_59_30                       1.000000
X_60_26                       1.000000
X_61_17                       1.000000
X_62_23                       1.000000
X_63_20                       1.000000
X_64_13                       1.000000
X_65_21                       1.000000
X_66_14                       1.000000
X_67_11                       1.000000
X_68_13                       1.000000
X_69_28                       1.000000
X_70_16                       1.000000
X_71_26                       1.000000
X_72_15                       1.000000
X_73_16                       1.000000
X_74_10                       1.000000
X_75_7                        1.000000
X_76_26                       1.000000
X_77_9                        1.000000
X_78_21                       1.000000
X_79_5                        1.000000
X_80_9                        1.000000
X_81_11                       1.000000
X_82_28                       1.000000
X_83_25                       1.000000
X_84_20                       1.000000
X_85_27                       1.000000
X_86_4                        1.000000
X_87_27                       1.000000
X_88_17                       1.000000
X_89_21                       1.000000
X_90_21                       1.000000
X_91_7                        1.000000
X_92_11                       1.000000
X_93_24                       1.000000
X_94_20                       1.000000
X_95_25                       1.000000
X_96_8                        1.000000
X_97_12                       1.000000
X_98_15                       1.000000
X_99_27                       1.000000
X_100_6                       1.000000
X_101_5                       1.000000
X_102_9                       1.000000
X_103_5                       1.000000
X_104_6                       1.000000
X_105_8                       1.000000
X_106_17                      1.000000
X_107_14                      1.000000
X_108_9                       1.000000
X_109_12                      1.000000
X_110_15                      1.000000
X_111_24                      1.000000
X_112_28                      1.000000
X_113_25                      1.000000
X_114_10                      1.000000
X_115_7                       1.000000
X_116_12                      1.000000
X_117_27                      1.000000
X_118_25                      1.000000
X_119_28                      1.000000
X_120_19                      1.000000
X_121_13                      1.000000
X_122_19                      1.000000
X_123_12                      1.000000
X_124_25                      1.000000
X_125_17                      1.000000
X_126_22                      1.000000
X_127_13                      1.000000
X_128_19                      1.000000
X_129_5                       1.000000
X_130_24                      1.000000
X_131_11                      1.000000
X_132_21                      1.000000
X_133_17                      1.000000
X_134_26                      1.000000
X_135_30                      1.000000
X_136_17                      1.000000
X_137_4                       1.000000
X_138_18                      1.000000
X_139_19                      1.000000
X_140_18                      1.000000
X_141_2                       1.000000
X_142_23                      1.000000
X_143_1                       1.000000
X_144_4                       1.000000
X_145_5                       1.000000
X_146_10                      1.000000
X_147_16                      1.000000
X_148_27                      1.000000
X_149_28                      1.000000
X_150_24                      1.000000
X_151_24                      1.000000
X_152_17                      1.000000
X_153_2                       1.000000
X_154_16                      1.000000
X_155_7                       1.000000
X_156_3                       1.000000
X_157_11                      1.000000
X_158_20                      1.000000
X_159_14                      1.000000
X_160_7                       1.000000
X_161_29                      1.000000
X_162_27                      1.000000
X_163_16                      1.000000
X_164_21                      1.000000
X_165_28                      1.000000
X_166_18                      1.000000
X_167_5                       1.000000
X_168_18                      1.000000
X_169_8                       1.000000
X_170_30                      1.000000
X_171_25                      1.000000
X_172_5                       1.000000
X_173_6                       1.000000
X_174_5                       1.000000
X_175_19                      1.000000
X_176_18                      1.000000
X_177_5                       1.000000
X_178_8                       1.000000
X_179_1                       1.000000
X_180_11                      1.000000
X_181_25                      1.000000
X_182_13                      1.000000
X_183_25                      1.000000
X_184_14                      1.000000
X_185_5                       1.000000
X_186_29                      1.000000
X_187_12                      1.000000
X_188_26                      1.000000
X_189_30                      1.000000
X_190_28                      1.000000
X_191_18                      1.000000
X_192_24                      1.000000
X_193_13                      1.000000
X_194_24                      1.000000
X_195_20                      1.000000
X_196_26                      1.000000
X_197_27                      1.000000
X_198_15                      1.000000
X_199_29                      1.000000
X_200_4                       1.000000
X_201_28                      1.000000
X_202_23                      1.000000
X_203_14                      1.000000
X_204_4                       1.000000
X_205_17                      1.000000
X_206_23                      1.000000
X_207_12                      1.000000
X_208_21                      1.000000
X_209_22                      1.000000
X_210_15                      1.000000
X_211_6                       1.000000
X_212_11                      1.000000
X_213_25                      1.000000
X_214_10                      1.000000
X_215_10                      1.000000
X_216_14                      1.000000
X_217_13                      1.000000
X_218_25                      1.000000
X_219_19                      1.000000
X_220_26                      1.000000
X_221_24                      1.000000
X_222_10                      1.000000
X_223_23                      1.000000
X_224_19                      1.000000
X_225_6                       1.000000
X_226_14                      1.000000
X_227_24                      1.000000
X_228_5                       1.000000
X_229_17                      1.000000
X_230_16                      1.000000
X_231_12                      1.000000
X_232_15                      1.000000
X_233_20                      1.000000
X_234_22                      1.000000
X_235_29                      1.000000
X_236_29                      1.000000
X_237_27                      1.000000
X_238_24                      1.000000
X_239_1                       1.000000
X_240_29                      1.000000
X_241_13                      1.000000
X_242_7                       1.000000
X_243_7                       1.000000
X_244_24                      1.000000
X_245_5                       1.000000
X_246_7                       1.000000
X_247_19                      1.000000
X_248_15                      1.000000
X_249_28                      1.000000
X_250_13                      1.000000
X_251_22                      1.000000
X_252_23                      1.000000
X_253_25                      1.000000
X_254_15                      1.000000
X_255_5                       1.000000
X_256_15                      1.000000
X_257_30                      1.000000
X_258_29                      1.000000
X_259_15                      1.000000
X_260_22                      1.000000
X_261_19                      1.000000
X_262_30                      1.000000
X_263_29                      1.000000
X_264_24                      1.000000
X_265_6                       1.000000
X_266_28                      1.000000
X_267_16                      1.000000
X_268_16                      1.000000
X_269_4                       1.000000
X_270_1                       1.000000
X_271_14                      1.000000
X_272_28                      1.000000
X_273_25                      1.000000
X_274_23                      1.000000
X_275_9                       1.000000
X_276_30                      1.000000
X_277_26                      1.000000
X_278_17                      1.000000
X_279_14                      1.000000
X_280_24                      1.000000
X_281_22                      1.000000
X_282_26                      1.000000
X_283_27                      1.000000
X_284_22                      1.000000
X_285_22                      1.000000
X_286_30                      1.000000
X_287_4                       1.000000
X_288_12                      1.000000
X_289_6                       1.000000
X_290_29                      1.000000
X_291_24                      1.000000
X_292_21                      1.000000
X_293_3                       1.000000
X_294_2                       1.000000
X_295_12                      1.000000
X_296_8                       1.000000
X_297_16                      1.000000
X_298_5                       1.000000
X_299_16                      1.000000
X_300_10                      1.000000
X_301_27                      1.000000
X_302_11                      1.000000
X_303_15                      1.000000
X_304_27                      1.000000
X_305_19                      1.000000
X_306_28                      1.000000
X_307_21                      1.000000
X_308_14                      1.000000
X_309_7                       1.000000
X_310_9                       1.000000
X_311_23                      1.000000
X_312_15                      1.000000
X_313_22                      1.000000
X_314_29                      1.000000
X_315_16                      1.000000
X_316_22                      1.000000
X_317_13                      1.000000
X_318_24                      1.000000
X_319_28                      1.000000
X_320_23                      1.000000
X_321_24                      1.000000
X_322_9                       1.000000
X_323_24                      1.000000
X_324_9                       1.000000
X_325_6                       1.000000
X_326_27                      1.000000
X_327_14                      1.000000
X_328_13                      1.000000
X_329_3                       1.000000
X_330_17                      1.000000
X_331_20                      1.000000
X_332_2                       1.000000
X_333_17                      1.000000
X_334_14                      1.000000
X_335_29                      1.000000
X_336_3                       1.000000
X_337_6                       1.000000
X_338_7                       1.000000
X_339_14                      1.000000
X_340_14                      1.000000
X_341_26                      1.000000
X_342_11                      1.000000
X_343_10                      1.000000
X_344_16                      1.000000
X_345_7                       1.000000
X_346_8                       1.000000
X_347_3                       1.000000
X_348_21                      1.000000
X_349_4                       1.000000
X_350_30                      1.000000
X_351_22                      1.000000
X_352_10                      1.000000
X_353_9                       1.000000
X_354_27                      1.000000
X_355_19                      1.000000
X_356_17                      1.000000
X_357_28                      1.000000
X_358_21                      1.000000
X_359_3                       1.000000
X_360_16                      1.000000
X_361_27                      1.000000
X_362_19                      1.000000
X_363_1                       1.000000
X_364_30                      1.000000
X_365_20                      1.000000
X_366_11                      1.000000
X_367_29                      1.000000
X_368_16                      1.000000
X_369_3                       1.000000
X_370_29                      1.000000
X_371_9                       1.000000
X_372_2                       1.000000
X_373_2                       1.000000
X_374_30                      1.000000
X_375_11                      1.000000
X_376_26                      1.000000
X_377_6                       1.000000
X_378_13                      1.000000
X_379_1                       1.000000
X_380_23                      1.000000
X_381_1                       1.000000
X_382_27                      1.000000
X_383_16                      1.000000
X_384_5                       1.000000
X_385_30                      1.000000
X_386_3                       1.000000
X_387_25                      1.000000
X_388_24                      1.000000
X_389_30                      1.000000
X_390_21                      1.000000
X_391_3                       1.000000
X_392_25                      1.000000
X_393_18                      1.000000
X_394_8                       1.000000
X_395_3                       1.000000
X_396_7                       1.000000
X_397_26                      1.000000
X_398_8                       1.000000
X_399_18                      1.000000
X_400_23                      1.000000
X_401_12                      1.000000
X_402_15                      1.000000
X_403_10                      1.000000
X_404_2                       1.000000
X_405_17                      1.000000
X_406_3                       1.000000
X_407_1                       1.000000
X_408_18                      1.000000
X_409_6                       1.000000
X_410_1                       1.000000
X_411_22                      1.000000
X_412_29                      1.000000
X_413_6                       1.000000
X_414_10                      1.000000
X_415_10                      1.000000
X_416_12                      1.000000
X_417_23                      1.000000
X_418_19                      1.000000
X_419_23                      1.000000
X_420_24                      1.000000
X_421_21                      1.000000
X_422_5                       1.000000
X_423_29                      1.000000
X_424_5                       1.000000
X_425_28                      1.000000
X_426_20                      1.000000
X_427_13                      1.000000
X_428_21                      1.000000
X_429_21                      1.000000
X_430_30                      1.000000
X_431_23                      1.000000
X_432_30                      1.000000
X_433_1                       1.000000
X_434_2                       1.000000
X_435_10                      1.000000
X_436_20                      1.000000
X_437_6                       1.000000
X_438_3                       1.000000
X_439_4                       1.000000
X_440_17                      1.000000
X_441_21                      1.000000
X_442_11                      1.000000
X_443_16                      1.000000
X_444_14                      1.000000
X_445_6                       1.000000
X_446_24                      1.000000
X_447_27                      1.000000
X_448_29                      1.000000
X_449_16                      1.000000
X_450_24                      1.000000
X_451_23                      1.000000
X_452_2                       1.000000
X_453_15                      1.000000
X_454_7                       1.000000
X_455_18                      1.000000
X_456_27                      1.000000
X_457_6                       1.000000
X_458_28                      1.000000
X_459_8                       1.000000
X_460_19                      1.000000
X_461_30                      1.000000
X_462_28                      1.000000
X_463_25                      1.000000
X_464_6                       1.000000
X_465_26                      1.000000
X_466_16                      1.000000
X_467_4                       1.000000
X_468_19                      1.000000
X_469_8                       1.000000
X_470_11                      1.000000
X_471_7                       1.000000
X_472_8                       1.000000
X_473_8                       1.000000
X_474_27                      1.000000
X_475_21                      1.000000
X_476_2                       1.000000
X_477_9                       1.000000
X_478_7                       1.000000
X_479_14                      1.000000
X_480_7                       1.000000
X_481_12                      1.000000
X_482_14                      1.000000
X_483_16                      1.000000
X_484_1                       1.000000
X_485_12                      1.000000
X_486_15                      1.000000
X_487_8                       1.000000
X_488_8                       1.000000
X_489_21                      1.000000
X_490_20                      1.000000
X_491_14                      1.000000
X_492_21                      1.000000
X_493_29                      1.000000
X_494_2                       1.000000
X_495_9                       1.000000
X_496_15                      1.000000
X_497_14                      1.000000
X_498_29                      1.000000
X_499_14                      1.000000
X_500_9                       1.000000
All other variables in the range 1-15001 are 0.
